9
0 50 20 80 27 78 47 66 64 
96 0 59 71 24 44 19 57 35 
31 93 0 67 25 35 53 17 46 
86 46 75 0 43 66 68 40 60 
61 89 70 32 0 76 25 75 100 
66 84 7 15 72 0 95 25 25 
62 5 80 23 87 67 0 75 2 
98 42 86 76 29 77 90 0 67 
59 78 78 51 21 9 97 91 0 
